(declare-fun temp682_1 () (_ BitVec 64))
(declare-fun ARGNAME_use_input_stats_NAMEEND () (_ BitVec 64))
(declare-fun temp682_2 () (_ BitVec 64))
(declare-fun var985537 () (_ BitVec 64))
(declare-fun var985545 () (_ BitVec 64))
(declare-fun temp682_3 () (_ BitVec 64))
(declare-fun temp682_4 () (_ BitVec 64))
(declare-fun ARGNAME_input_NAMEEND_DIMSIZE
             ()
             (Array (_ BitVec 64) (_ BitVec 64)))
(declare-fun temp682_5 () (_ BitVec 64))
(declare-fun temp682_6 () (_ BitVec 64))
(declare-fun temp682_7 () (_ BitVec 64))
(declare-fun temp682_8 () (_ BitVec 64))
(declare-fun temp682_9 () (_ BitVec 64))
(declare-fun temp682_10 () (_ BitVec 64))
(declare-fun temp682_11 () (_ BitVec 64))
(declare-fun temp682_12 () (_ BitVec 64))
(declare-fun temp682_13 () (_ BitVec 64))
(declare-fun temp682_14 () (_ BitVec 64))
(declare-fun temp682_15 () (_ BitVec 64))
(declare-fun temp682_16 () (_ BitVec 64))
(declare-fun temp682_17 () (_ BitVec 64))
(declare-fun temp682_18 () (_ BitVec 64))
(declare-fun temp682_19 () (_ BitVec 64))
(declare-fun temp682_20 () (_ BitVec 64))
(declare-fun temp682_21 () (_ BitVec 64))
(declare-fun temp682_22 () (_ BitVec 64))
(declare-fun temp682_23 () (_ BitVec 64))
(declare-fun ARGNAME_input_NAMEEND_DIM () (_ BitVec 64))
(declare-fun temp682_24 () (_ BitVec 64))
(declare-fun temp682_25 () (_ BitVec 64))
(declare-fun temp682_26 () (_ BitVec 64))
(declare-fun temp682_27 () (_ BitVec 64))
(declare-fun temp682_28 () (_ BitVec 64))
(declare-fun var2039185 () (_ BitVec 64))
(declare-fun temp682_29 () (_ BitVec 64))
(declare-fun var2235793 () (_ BitVec 64))
(declare-fun temp682_30 () (_ BitVec 64))
(declare-fun temp682_31 () (_ BitVec 64))
(declare-fun temp682_32 () (_ BitVec 64))
(declare-fun temp682_33 () (_ BitVec 64))
(declare-fun temp682_34 () (_ BitVec 64))
(declare-fun var2753483 () (_ BitVec 64))
(declare-fun temp682_36 () (_ BitVec 64))
(declare-fun temp682_35 () (_ BitVec 64))
(declare-fun temp682_38 () (_ BitVec 64))
(declare-fun temp682_37 () (_ BitVec 64))
(declare-fun temp682_39 () (_ BitVec 64))
(declare-fun temp682_40 () (_ BitVec 64))
(declare-fun temp682_42 () (_ BitVec 64))
(declare-fun temp682_41 () (_ BitVec 64))
(declare-fun temp682_44 () (_ BitVec 64))
(declare-fun temp682_43 () (_ BitVec 64))
(declare-fun temp682_45 () (_ BitVec 64))
(declare-fun temp682_46 () (_ BitVec 64))
(declare-fun temp682_48 () (_ BitVec 64))
(declare-fun temp682_47 () (_ BitVec 64))
(declare-fun temp682_50 () (_ BitVec 64))
(declare-fun temp682_49 () (_ BitVec 64))
(declare-fun temp682_51 () (_ BitVec 64))
(declare-fun var7539137 () (_ BitVec 64))
(declare-fun var7539145 () (_ BitVec 64))
(assert (= temp682_1 #x0000000000000001))
(assert (= ARGNAME_use_input_stats_NAMEEND temp682_1))
(assert (= temp682_2 #x0000000000000002))
(assert (= var985537 temp682_2))
(assert (= var985545 var985537))
(assert (= temp682_3 #x0000000000000000))
(assert (= temp682_4 temp682_3))
(assert (= temp682_5 (select ARGNAME_input_NAMEEND_DIMSIZE temp682_4)))
(assert (= temp682_6 #x0000000000000001))
(assert (= temp682_7 temp682_6))
(assert (= temp682_8 (select ARGNAME_input_NAMEEND_DIMSIZE temp682_7)))
(assert (= temp682_9 #x0000000000000002))
(assert (= temp682_10 temp682_9))
(assert (= temp682_11 (select ARGNAME_input_NAMEEND_DIMSIZE temp682_10)))
(assert (= temp682_12 #x0000000000000003))
(assert (= temp682_13 temp682_12))
(assert (= temp682_14 (select ARGNAME_input_NAMEEND_DIMSIZE temp682_13)))
(assert (= temp682_15 #x0000000000000004))
(assert (= temp682_16 temp682_15))
(assert (= temp682_17 (select ARGNAME_input_NAMEEND_DIMSIZE temp682_16)))
(assert (= temp682_18 #x0000000000000005))
(assert (= temp682_19 temp682_18))
(assert (= temp682_20 (select ARGNAME_input_NAMEEND_DIMSIZE temp682_19)))
(assert (= temp682_21 #x0000000000000000))
(assert (= temp682_22 temp682_21))
(assert (= temp682_23 (select ARGNAME_input_NAMEEND_DIMSIZE temp682_22)))
(assert (bvsgt ARGNAME_input_NAMEEND_DIM temp682_21))
(assert (bvsge temp682_21 (bvneg ARGNAME_input_NAMEEND_DIM)))
(assert (= temp682_24 #x0000000000000001))
(assert (= temp682_25 temp682_24))
(assert (= temp682_26 (select ARGNAME_input_NAMEEND_DIMSIZE temp682_25)))
(assert (bvsgt ARGNAME_input_NAMEEND_DIM temp682_24))
(assert (bvsge temp682_24 (bvneg ARGNAME_input_NAMEEND_DIM)))
(assert (= temp682_27 temp682_26))
(assert (= temp682_28 #x0000000000000001))
(assert (= var2039185 temp682_28))
(assert (= temp682_29 #x0000000000000000))
(assert (= var2235793 temp682_29))
(assert (= temp682_30 temp682_23))
(assert (= temp682_31 temp682_23))
(assert (= temp682_32 temp682_23))
(assert (= temp682_33 temp682_23))
(assert (= temp682_34 #x0000000000000001))
(assert (= var2753483 temp682_34))
(assert (= temp682_36 #x0000000000000000))
(assert (= temp682_35 temp682_36))
(assert (= temp682_38 #x0000000000000000))
(assert (= temp682_37 temp682_38))
(assert (= temp682_39 temp682_23))
(assert (= temp682_40 temp682_26))
(assert (= temp682_42 #x0000000000000002))
(assert (= temp682_41 temp682_42))
(assert (= temp682_44 #x0000000000000000))
(assert (= temp682_43 temp682_44))
(assert (= temp682_45 temp682_23))
(assert (= temp682_46 temp682_26))
(assert (= temp682_48 #x0000000000000002))
(assert (= temp682_47 temp682_48))
(assert (= temp682_50 #x0000000000000000))
(assert (= temp682_49 temp682_50))
(assert (= temp682_51 #x0000000000000002))
(assert (= var7539137 temp682_51))
(assert (= var7539145 var7539137))
(model-add temp682_1 () (_ BitVec 64) #x0000000000000001)
(model-add ARGNAME_use_input_stats_NAMEEND () (_ BitVec 64) #x0000000000000001)






